29219582545470921915011,7,1,2,014,11,1,2,09,13,1,2,013,10,1,2,04,7,1,2,015,9,1,2,014,5,1,2,012,6,1,2,08,2,1,2,02,4,1,2,03,12,1,2,014,15,1,2,05,6,1,2,015,15,1,2,05,2,1,2,011,14,1,2,03,6,1,2,014,2,1,2,06,12,1,2,02,12,1,2,010,1,1,2,013,11,1,2,09,11,1,2,011,14,1,2,014,4,1,2,015,9,1,2,013,8,1,2,011,2,1,2,05,11,1,2,05,14,1,2,07,9,1,2,08,9,1,2,07,4,1,2,010,8,1,2,012,5,1,2,08,11,1,2,04,3,1,2,010,1,1,2,010,14,1,2,04,13,1,2,03,13,1,2,03,3,1,2,08,2,1,2,010,12,1,2,03,12,1,2,013,6,1,2,012,9,1,2,08,6,1,2,014,12,1,2,03,4,1,2,0